c --- [ banner ] -------------------------------------------------------------
c 
c CaDiCaL Radically Simplified CDCL SAT Solver
c Copyright (c) 2016-2021 A. Biere, M. Fleury, N. Froleyks
c 
c Version 1.5.2 ca9bff05c11bde5eae4912f9932871d1527e61d8
c g++ (GCC) 9.3.0 -Wall -Wextra -O3 -DNDEBUG
c Thu Jul 28 23:42:48 EDT 2022 Linux gra-login3 3.10.0-1160.66.1.el7.x86_64 x86_64
c 
c --- [ limit ] --------------------------------------------------------------
c 
c setting conflict limit to 200000 conflicts (due to '200000')
c 
c --- [ parsing input ] ------------------------------------------------------
c 
c reading DIMACS file from '23.cubes145.adj'
c opening file to read '23.cubes145.adj'
c found 'p cnf 5320 914889' header
c parsed 914889 clauses in 8.27 seconds process time
c closing file '23.cubes145.adj'
c after reading 637829969 bytes 608.3 MB
c 
c --- [ options ] ------------------------------------------------------------
c 
c all options are set to their default value
c 
c --- [ solving ] ------------------------------------------------------------
c 
c time measured in process time since initialization
c 
c  seconds   reductions  redundant  irredundant
c          MB    restarts       trail      variables
c           level   conflicts       glue        remaining
c 
c *  8.27 629  0 0   0    0    0  0% 0 914847 2141 40%
c {  9.03 675  0 0   0    0    0  0% 0 914847 2141 40%
c i 10.42 701 465 0   4   43   32 29% 12 914847 2140 40%
c i 10.53 702 415 0   4   49   36 29% 13 914847 2139 40%
c i 10.78 704 324 0   4   63   49 28% 13 914847 2138 40%
c i 11.02 707 269 0   8   78   62 28% 16 914847 2137 40%
c i 11.03 707 265 0   8   79   62 28% 15 914847 2136 40%
c i 11.06 707 261 0   8   80   62 28% 15 914847 2135 40%
c i 11.10 707 247 0   9   85   66 28% 15 914847 2109 40%
c i 11.11 707 242 0   9   87   67 27% 14 914847 2108 40%
c i 11.18 708 236 0   9   89   68 27% 14 914847 2107 40%
c i 11.22 708 224 0   9   94   72 27% 14 914847 2106 40%
c i 11.25 708 213 0   9  101   78 27% 16 914847 2082 39%
c i 11.51 711 173 0  12  131   93 26% 15 914847 2075 39%
c i 11.57 711 166 0  12  137   97 26% 14 914847 2074 39%
c i 11.62 711 162 0  12  141  100 26% 15 914847 2073 39%
c i 11.66 711 161 0  12  142  100 26% 14 914847 2072 39%
c i 11.81 712 155 0  12  149  106 26% 14 914847 2071 39%
c i 11.87 712 148 0  12  157  113 26% 15 914847 2070 39%
c i 11.88 712 146 0  12  160  115 26% 14 914847 2069 39%
c 
c  seconds    reductions  redundant   irredundant
c          MB     restarts       trail       variables
c            level   conflicts       glue         remaining
c 
c i 11.88 712 145 0  12  161  115 26% 14 914847 2068 39%
c i 11.89 712 142 0  12  165  117 26% 14 914847 2067 39%
c i 11.89 712 141 0  12  167  118 26% 14 914847 2066 39%
c i 11.90 712 139 0  12  170  119 26% 14 914847 2065 39%
c i 11.90 712 138 0  12  171  119 26% 14 914847 2064 39%
c i 11.90 712 137 0  12  172  119 26% 14 914847 2063 39%
c i 11.90 712 137 0  12  173  119 26% 14 914847 2062 39%
c i 11.92 712 136 0  12  175  119 26% 14 914847 2061 39%
c i 11.94 712 132 0  12  181  124 26% 15 914847 2060 39%
c i 11.94 712 132 0  12  182  124 26% 14 914847 2059 39%
c i 12.06 714 128 0  14  190  131 26% 15 914847 2058 39%
c i 12.08 714 127 0  14  192  132 26% 15 914847 2057 39%
c i 12.49 716 116 0  23  227  161 26% 17 914847 2056 39%
c i 12.52 716 114 0  24  231  164 26% 17 914847 2055 39%
c i 12.59 716 110 0  28  243  173 26% 18 914847 2054 39%
c i 12.59 716 110 0  28  244  173 26% 18 914847 2053 39%
c i 12.59 716 109 0  29  246  174 26% 18 914847 2052 39%
c i 12.61 716 108 0  30  249  176 26% 18 914847 2051 39%
c i 12.61 716 107 0  30  252  178 26% 18 914847 2050 39%
c i 12.68 716 106 0  32  256  181 26% 18 914847 2049 39%
c 
c  seconds    reductions  redundant   irredundant
c          MB     restarts       trail       variables
c            level   conflicts       glue         remaining
c 
c i 12.97 718 100 0  40  289  209 26% 19 914847 2048 38%
c - 15.62 712 99 1  44  302  219 25% 19 411331 2048 38%
c i 15.98 713 97 1  52  334  245 25% 20 411331 2047 38%
c i 16.19 714 97 1  54  364  267 25% 20 411331 2046 38%
c i 16.19 714 96 1  55  368  270 25% 20 411331 2045 38%
c i 16.19 714 95 1  55  369  270 25% 20 411331 2044 38%
c i 16.19 714 95 1  55  370  270 25% 20 411331 2043 38%
c i 16.19 714 95 1  55  371  270 25% 20 411331 2042 38%
c i 16.19 714 94 1  55  373  271 25% 20 411331 2041 38%
c i 16.23 714 93 1  55  380  274 25% 20 411331 2040 38%
c i 16.24 714 92 1  55  382  275 25% 19 411331 2039 38%
c i 16.34 714 89 1  55  402  291 26% 20 411331 2038 38%
c i 16.36 714 89 1  55  406  294 26% 20 411331 2037 38%
c i 16.70 714 88 1  60  429  315 26% 20 411331 2036 38%
c i 16.71 714 87 1  62  438  322 26% 21 411331 2035 38%
c i 16.72 714 86 1  63  441  323 26% 21 411331 2034 38%
c i 16.72 714 86 1  64  443  324 26% 20 411331 2033 38%
c i 16.80 714 85 1  66  452  331 26% 20 411331 2032 38%
c i 16.87 714 84 1  66  456  334 26% 20 411331 2031 38%
c i 16.93 714 84 1  69  465  339 26% 21 411331 2030 38%
c 
c  seconds   reductions  redundant   irredundant
c          MB    restarts       trail       variables
c           level   conflicts       glue         remaining
c 
c i 17.16 715 85 1  74  492  361 26% 22 411331 2029 38%
c i 17.16 715 85 1  75  493  361 26% 22 411331 2028 38%
c i 17.88 716 74 1  91  646  440 24% 22 411331 2027 38%
c i 17.89 716 74 1  91  647  440 24% 22 411331 2026 38%
c i 17.89 716 74 1  91  648  440 24% 22 411331 2025 38%
c i 17.89 716 74 1  91  649  440 24% 22 411331 2024 38%
c i 17.89 716 74 1  91  650  440 24% 22 411331 2023 38%
c i 17.89 716 73 1  91  651  440 24% 22 411331 2022 38%
c i 17.89 716 73 1  91  652  440 24% 22 411331 2021 38%
c i 17.95 716 73 1  91  654  441 24% 21 411331 2020 38%
c i 18.09 716 71 1  91  682  466 24% 21 411331 2019 38%
c i 18.11 716 71 1  91  683  466 24% 21 411331 2018 38%
c i 18.19 716 69 1  91  719  493 24% 21 411331 2017 38%
c i 18.30 716 68 1  91  743  511 24% 21 411331 2016 38%
c i 18.30 716 68 1  91  745  512 24% 21 411331 2015 38%
c i 18.31 716 68 1  91  751  515 24% 21 411331 2012 38%
c i 18.32 716 68 1  91  756  519 24% 21 411331 2011 38%
c i 18.48 715 70 1  93  776  535 24% 21 411331 1997 38%
c i 18.85 716 70 1  98  810  563 24% 21 411331 1990 37%
c i 18.87 716 70 1  99  814  565 24% 21 411331 1989 37%
c 
c  seconds   reductions  redundant   irredundant
c          MB    restarts       trail       variables
c           level   conflicts       glue         remaining
c 
c i 18.87 716 70 1  99  816  566 24% 21 411331 1988 37%
c i 18.90 716 71 1  99  826  574 24% 21 411331 1987 37%
c i 19.08 716 72 1 107  854  599 24% 22 411331 1986 37%
c i 19.47 716 71 1 117  904  636 24% 22 411331 1978 37%
c } 19.59 716 66 1 122 1001  650 24% 21 411331 1978 37%
c [ 19.59 716  0 1 122 1001  650  0% 0 411331 1978 37%
c O 19.59 716  1 1 122 1002  651 11% 1 411331 1978 37%
c i 19.61 716  3 1 122 1005  653 12% 1 411331 1977 37%
c i 19.62 716  3 1 122 1026  659 14% 3 411331 1975 37%
c i 19.88 716 13 1 122 1048  678 21% 7 411331 1974 37%
c i 19.96 716 17 1 122 1114  709 26% 13 411331 1973 37%
c i 20.00 716 16 1 122 1193  748 27% 13 411331 1972 37%
c i 20.01 716 16 1 122 1196  750 27% 13 411331 1971 37%
c i 20.03 716 15 1 122 1219  761 28% 12 411331 1970 37%
c - 20.75 743 15 2 122 1272  669 28% 12 271461 1970 37%
c i 20.87 744 15 2 122 1285  677 28% 13 271461 1969 37%
c i 21.41 743 18 2 122 1678  972 28% 14 271461 1968 37%
c i 21.80 744 19 2 123 2299 1374 29% 16 271461 1967 37%
c i 21.92 744 19 2 123 2478 1494 29% 16 271461 1966 37%
c - 22.24 743 20 3 123 2563 1212 29% 16 271449 1966 37%
c 
c  seconds   reductions  redundant   irredundant
c          MB    restarts       trail       variables
c           level   conflicts       glue         remaining
c 
c i 22.45 743 20 3 123 2565 1213 41% 16 271449 1965 37%
c i 22.69 743 20 3 123 2719 1326 54% 17 271449 1964 37%
c ] 22.90 743 20 3 123 3001 1537 53% 17 271449 1964 37%
c { 22.90 743 66 3 123 3001 1537 64% 21 271449 1964 37%
c F 22.93 743 66 3 123 3006 1539 64% 21 271449 1964 37%
c i 23.05 743 64 3 123 3034 1556 63% 21 271449 1963 37%
c i 23.14 743 64 3 123 3044 1563 63% 21 271449 1962 37%
c i 23.15 743 64 3 123 3046 1564 63% 21 271449 1961 37%
c i 23.26 743 63 3 123 3062 1573 63% 21 271449 1960 37%
c i 23.45 743 62 3 126 3125 1623 62% 21 271449 1959 37%
c i 23.56 743 62 3 133 3157 1653 61% 21 271449 1958 37%
c i 23.75 743 62 3 138 3174 1666 61% 21 271449 1957 37%
c i 23.84 743 60 3 139 3223 1707 60% 21 271449 1956 37%
c i 23.88 743 60 3 139 3240 1721 60% 21 271449 1955 37%
c i 23.90 743 60 3 139 3241 1721 60% 21 271449 1954 37%
c i 24.05 743 59 3 139 3280 1752 60% 21 271449 1953 37%
c i 24.30 743 60 3 149 3359 1808 59% 21 271449 1952 37%
c i 24.45 743 59 3 149 3398 1843 58% 21 271449 1951 37%
c i 25.47 743 60 3 197 3674 2067 56% 22 271449 1950 37%
c i 25.51 743 59 3 197 3704 2092 56% 22 271449 1949 37%
c 
c  seconds   reductions  redundant   irredundant
c          MB    restarts       trail       variables
c           level   conflicts       glue         remaining
c 
c i 25.69 743 56 3 197 3853 2202 55% 22 271449 1948 37%
c i 25.69 743 56 3 197 3854 2202 55% 22 271449 1947 37%
c - 26.27 739 50 4 197 4283 1866 54% 21 271392 1947 37%
c i 26.61 739 48 4 197 4411 1958 53% 20 271392 1946 37%
c i 27.38 739 47 4 220 4731 2200 53% 20 271392 1945 37%
c i 28.58 739 48 4 266 4969 2407 52% 21 271392 1944 37%
c d 29.08 740 47 4 266 5000 2419 52% 21 259226 1925 36%
c 3 29.11 740 47 4 266 5000 3207 52% 21 259226 1925 36%
c 2 29.17 740 47 4 266 5000 3299 52% 21 259225 1925 36%
c p 34.93 740 47 4 266 5000 5817 52% 21 259225 1871 35%
c # 37.81 740 44 4 324 6007 6651 51% 21 259225 1871 35%
c - 39.50 731 43 5 367 6434 2706 50% 21 259063 1871 35%
c } 41.16 731 42 5 419 7001 3136 50% 21 259063 1871 35%
c [ 41.16 731 20 5 419 7001 3136 53% 17 259063 1871 35%
c - 43.31 731 19 6 420 8981 3098 51% 16 259063 1871 35%
c I 44.26 731 19 6 421 10009 3857 51% 16 259063 1871 35%
c - 45.94 732 25 7 423 11951 3732 51% 21 259063 1871 35%
c ] 48.71 732 30 7 424 15003 5862 50% 25 259063 1871 35%
c { 48.71 732 42 7 424 15003 5862 50% 21 259063 1871 35%
c 2 48.77 732 42 7 424 15003 6766 50% 21 259062 1871 35%
c 
c  seconds   reductions   redundant   irredundant
c          MB    restarts        trail       variables
c           level    conflicts       glue         remaining
c 
c p 50.21 732 42 7 424 15003 9433 50% 21 259062 1871 35%
c B 50.34 732 42 7 424 15010 9440 50% 21 259062 1871 35%
c - 52.74 732 43 8 495 15343 4251 49% 22 259062 1871 35%
c s 56.04 732 37 8 542 17482 5426 48% 20 257164 1871 35%
c v 60.21 732 37 8 542 17482 5426 48% 20 257144 1871 35%
c w 60.31 732 37 8 542 17482 5424 48% 20 257144 1871 35%
c t 60.32 732 37 8 542 17482 5417 48% 20 257133 1871 35%
c e 61.21 733 37 8 542 17482 5022 48% 20 254444 658 12%
c s 61.32 733 37 8 542 17482 5016 48% 20 253985 658 12%
c - 64.88 732 33 9 583 19160 4180 81% 19 253985 658 12%
c W 69.35 732 33 9 752 21011 5595 80% 19 253985 658 12%
c - 74.43 644 32 10 967 23374 5391 79% 19 253985 658 12%
c - 79.29 644 30 11 1121 28009 5863 81% 19 253985 658 12%
c F 79.31 644 30 11 1121 28013 5866 81% 19 253985 658 12%
c p 82.79 644 29 11 1156 30003 9036 81% 19 253985 658 12%
c } 83.67 644 28 11 1156 31004 9606 81% 18 253985 658 12%
c [ 83.67 644 30 11 1156 31004 9606 150% 25 253985 658 12%
c - 85.05 644 28 12 1156 33068 5922 136% 24 253985 658 12%
c B 86.67 644 27 12 1159 36017 7877 123% 23 253985 658 12%
c - 87.99 644 27 13 1160 38546 6514 116% 23 253985 658 12%
c 
c  seconds   reductions     redundant    irredundant
c          MB     restarts         trail        variables
c           level      conflicts        glue        remaining
c 
c - 91.30 644 25 14 1163 44446 6495 106% 22 253985 658 12%
c W 92.61 644 25 14 1163 45024 6792 105% 21 253985 658 12%
c p 96.11 644 25 14 1164 50005 11725 101% 21 253985 658 12%
c - 96.79 644 25 15 1164 50768 6804 100% 21 253985 658 12%
c O 98.88 644 26 15 1165 55026 9691 98% 22 253985 658 12%
c - 99.87 644 25 16 1167 57511 8071 96% 21 253985 658 12%
c ] 101.53 644 24 16 1171 63005 11696 94% 20 253985 658 12%
c { 101.53 644 28 16 1171 63005 11696 81% 18 253985 658 12%
c } 101.61 644 28 16 1171 63211 11838 81% 18 253985 658 12%
c 1 101.61 644 28 16 1171 63211 11838 81% 18 253985 658 12%
c 
c --- [ writing output ] -----------------------------------------------------
c 
c writing simplified CNF to DIMACS file 'simp/23.cubes145.adj.simp1'
c * 101.61 644 28 16 1171 63211 11838 81% 18 253985 658 12%
c opening file to write 'simp/23.cubes145.adj.simp1'
c writing 'p cnf 5320 253985' header
c closing file 'simp/23.cubes145.adj.simp1'
c after writing 98807061 bytes 94.2 MB
c wrote 253985 clauses in 0.72 seconds process time
c 
c --- [ writing extension ] --------------------------------------------------
c 
c writing extension stack to 'simp/23.cubes145.adj.ext1'
c opening file to write 'simp/23.cubes145.adj.ext1'
c closing file 'simp/23.cubes145.adj.ext1'
c after writing 86559 bytes 0.1 MB
c wrote 3725 witnesses in 0.00 seconds process time
c 
c --- [ result ] -------------------------------------------------------------
c 
s SATISFIABLE
c 
c --- [ run-time profiling ] -------------------------------------------------
c 
c process time taken by individual solving procedures
c (percentage relative to process time for solving)
c 
c        77.23   82.75% search
c        48.46   51.92% unstable
c        26.62   28.53% stable
c        16.10   17.25% simplify
c         9.21    9.87% probe
c         8.27    8.86% parse
c         4.24    4.54% vivify
c         1.64    1.75% elim
c         1.39    1.48% walk
c         0.76    0.82% lucky
c         0.21    0.22% subsume
c         0.16    0.17% ternary
c   =================================
c        93.34   91.21% solve
c 
c last line shows process time for solving
c (percentage relative to total process time)
c 
c --- [ statistics ] ---------------------------------------------------------
c 
c chronological:             10542        16.68 %  of conflicts
c conflicts:                 63211       677.24    per second
c decisions:                138306      1481.81    per second
c eliminated:                 1213        22.80 %  of all variables
c fixed:                       593        11.15 %  of all variables
c learned:                   62018        98.11 %  per conflict
c learned_lits:           11459022       100.00 %  learned literals
c minimized:                     0         0.00 %  learned literals
c shrunken:                7253665        63.30 %  learned literals
c minishrunken:             922694         8.05 %  learned literals
c propagations:            4606862         0.05 M  per second
c reduced:                   28697        45.40 %  per conflict
c rephased:                     10      6321.10    interval
c restarts:                   1171        53.98    interval
c stabilizing:                   3        66.45 %  of conflicts
c substituted:                  19         0.36 %  of all variables
c subsumed:                  23341         1.04 %  of all clauses
c strengthened:               4350         0.19 %  of all clauses
c ternary:                    2571         0.66 %  of resolved
c vivified:                     33         0.00 %  of all clauses
c walked:                        2     31605.50    interval
c weakened:                   3132         3.13    average size
c 
c seconds are measured in process time for solving
c 
c --- [ resources ] ----------------------------------------------------------
c 
c total process time since initialization:       102.33    seconds
c total real time since initialization:          102.78    seconds
c maximum resident set size of process:          846.48    MB
c 
c --- [ shutting down ] ------------------------------------------------------
c 
c exit 10
WARNING! DIMACS header mismatch: wrong number of variables.
============================[ Problem Statistics ]=============================
|                                                                             |
|  Number of variables:          2708                                         |
|  Number of clauses:          253989                                         |
|  Parse time:                   1.35 s                                       |
|  Simplification time:          0.03 s                                       |
|                                                                             |
============================[ Search Statistics ]====================================================
| Conflicts |          ORIGINAL         |          LEARNT          | Num Sols |      SUBGRAPHS      |
|           |    Vars  Clauses Literals |    Limit  Clauses Lit/Cl |          | Canonical Noncanon. |
=====================================================================================================
|       102 |    2633   253991 22473762 |     2000      102    190 |        0 |        12         2 |
|       314 |    2633   254053 22474826 |     2000      314     82 |        0 |        44        64 |
|       545 |    2633   254059 22474976 |     2000      545     93 |        0 |        54        70 |
|      1361 |    2633   254538 22480837 |     2000     1361     44 |        0 |       180       549 |
|      2439 |    2633   255110 22489048 |     3604     1443     13 |        0 |       302      1121 |
|      4507 |    2633   256419 22505511 |     3604     3511     12 |        0 |       491      2430 |
|      7891 |    2633   258664 22532637 |     6310     2601      9 |        0 |       927      4675 |
|     14489 |    2620   263553 22587866 |     7559     6047     15 |        0 |      1549      9565 |
=====================================================================================================
Number of solutions   : 0
Canonical subgraphs   : 1747           (341 /sec)
          order  3    : 1              (166667 /sec)
          order  4    : 1              (500000 /sec)
          order  5    : 1              (250000 /sec)
          order  6    : 1              (50000 /sec)
          order  7    : 3              (12397 /sec)
          order  8    : 7              (2997 /sec)
          order  9    : 24             (1232 /sec)
          order 10    : 70             (814 /sec)
          order 11    : 235            (660 /sec)
          order 12    : 775            (453 /sec)
          order 13    : 575            (218 /sec)
          order 14    : 54             (172 /sec)
          order 15    : 0              (-nan /sec)
          order 16    : 0              (-nan /sec)
          order 17    : 0              (-nan /sec)
          order 18    : 0              (-nan /sec)
          order 19    : 0              (-nan /sec)
          order 20    : 0              (-nan /sec)
          order 21    : 0              (-nan /sec)
Noncanonical subgraphs: 11777          (2090 /sec)
          order  3    : 0              (-nan /sec)
          order  4    : 0              (-nan /sec)
          order  5    : 0              (-nan /sec)
          order  6    : 0              (-nan /sec)
          order  7    : 0              (-nan /sec)
          order  8    : 0              (-nan /sec)
          order  9    : 0              (-nan /sec)
          order 10    : 0              (-nan /sec)
          order 11    : 0              (-nan /sec)
          order 12    : 0              (-nan /sec)
          order 13    : 9422           (2306 /sec)
          order 14    : 2178           (1490 /sec)
          order 15    : 177            (2075 /sec)
          order 16    : 0              (-nan /sec)
          order 17    : 0              (-nan /sec)
          order 18    : 0              (-nan /sec)
          order 19    : 0              (-nan /sec)
          order 20    : 0              (-nan /sec)
Canonicity checking   : 5.12656 s
Noncanonicity checking: 5.6338 s
Total canonicity time : 10.7604 s
database reductions   : 5
restarts              : 63
conflicts             : 17572          (853 /sec)
decisions             : 37066          (0.00 % random) (1799 /sec)
propagations          : 767357         (37253 /sec)
conflict literals     : 396051         (56.85 % deleted)
actual reward         : 0.130605
Memory used           : 148.00 MB
CPU time              : 20.5984 s

UNSATISFIABLE
